c Output_time 26.03.2020 18:15:28_+0100 1585242928070514090
c ** Program information **
c program_name                          "QBRG_debug"
c version                               "0.3.20"
c date                                  "25.3.2020"
c gid_id                                "673970833836058123f633335630c185360d632e"
c author                                "Oliver Kullmann"
c url                                   "https://github.com/OKullmann/oklibrary/blob/master/Satisfiability/Transformers/Generators/Random/QBRG.cpp"
c ** Machine information **
c machine_name                          "chyna-Lenovo-G50-70"
c bogomips                              3791.08
c ** Compilation information **
c compiler_version                      "g++ 7.5.0"
c compilation_date                      "Mar_26_2020 11:16:30"
c compilation_options                   "--std=c++17 -pedantic -fmax-errors=5 -Wall -Wextra -g -D_GLIBCXX_DEBUG"
c NDEBUG                                0
c OPTIMIZE                              0
c ** Parameters **
c command-line                          "./QBRG_debug" "a40 e40 a40 40" "557*1,1|2-2,1|3-3,1|4-4,1" "" "1,t" ""
c output                                "QuBlRaGe_160_557_1585242928070327900.qdimacs"
c options                               "filtered,renamed"
c num_quantifier_blocks                 4
c  quantifier_blocks                    1:a1-40 2:e41-80 3:a81-120 4:e121-160
c num_clause-blocks                     1
c  clause-blocks                        557 * {1-40,1,1/2} | {41-80,1,1/2} | {81-120,1,1/2} | {121-160,1,1/2}
c num_e-seeds                           37+2=39
c  e-seeds                              1 0 1 0 5 160 2 40 0 40 1 40 0 40 1 557 4 1 1 1 1 2 2 2 1 1 2 3 3 1 1 2 4 4 1 1 2 1 1585242928070326971
p cnf 160 557
a 1 2 3 4 5 6 7 8 9 10 11 12 13 14 15 16 17 18 19 20 21 22 23 24 25 26 27 28 29 30 31 32 33 34 35 36 37 38 39 40 0
e 41 42 43 44 45 46 47 48 49 50 51 52 53 54 55 56 57 58 59 60 61 62 63 64 65 66 67 68 69 70 71 72 73 74 75 76 77 78 79 80 0
a 81 82 83 84 85 86 87 88 89 90 91 92 93 94 95 96 97 98 99 100 101 102 103 104 105 106 107 108 109 110 111 112 113 114 115 116 117 118 119 120 0
e 121 122 123 124 125 126 127 128 129 130 131 132 133 134 135 136 137 138 139 140 141 142 143 144 145 146 147 148 149 150 151 152 153 154 155 156 157 158 159 160 0
34 54 84 -121 0
-19 -45 -96 -121 0
8 -52 -98 -121 0
-15 -75 -109 -121 0
-14 -62 112 -121 0
38 -66 82 121 0
13 75 84 121 0
15 -80 -85 121 0
-21 73 87 121 0
7 43 -93 121 0
11 -66 -95 121 0
-21 70 100 121 0
-8 -61 104 121 0
-27 -49 -111 121 0
36 51 -98 -122 0
11 52 -102 -122 0
21 -45 -108 -122 0
9 -80 113 -122 0
-12 63 -116 -122 0
-16 53 116 -122 0
34 -50 102 122 0
-5 78 109 122 0
22 69 114 122 0
6 -59 115 122 0
-20 51 -81 -123 0
-6 -71 81 -123 0
36 -62 -105 -123 0
34 -54 107 -123 0
35 46 -109 -123 0
-21 -73 117 -123 0
-38 79 118 -123 0
34 78 -95 123 0
-22 62 99 123 0
25 -52 105 123 0
-23 -74 112 123 0
-25 -49 -119 123 0
33 -74 -94 -124 0
-1 51 95 -124 0
22 59 -98 -124 0
8 -53 111 -124 0
10 -47 83 124 0
-12 -71 84 124 0
17 -73 85 124 0
38 60 -88 124 0
14 64 89 124 0
25 63 107 124 0
11 -53 117 124 0
25 75 -82 -125 0
-38 -45 -83 -125 0
-40 54 85 -125 0
-1 48 94 -125 0
6 -51 94 -125 0
32 42 102 -125 0
27 -72 102 -125 0
10 -71 117 -125 0
-5 64 -82 125 0
11 49 87 125 0
31 53 95 125 0
18 64 -96 125 0
-19 56 -98 125 0
-14 54 98 125 0
-24 -66 -104 125 0
29 -56 -108 125 0
-34 -47 -99 -126 0
-15 -49 118 -126 0
7 -45 -81 126 0
24 -43 -82 126 0
22 -55 -99 126 0
29 -52 105 126 0
-4 44 113 126 0
23 69 82 -127 0
38 -65 85 -127 0
-14 63 87 -127 0
11 45 90 -127 0
2 -70 -96 -127 0
18 -54 -98 -127 0
-32 49 100 -127 0
40 64 -115 -127 0
5 44 115 -127 0
-27 77 -118 -127 0
-26 -77 118 -127 0
-34 -74 88 127 0
-8 -46 89 127 0
10 55 92 127 0
-19 -69 96 127 0
16 -56 101 127 0
-14 58 -110 127 0
32 -55 -114 127 0
-7 75 -86 -128 0
17 -50 91 -128 0
2 -67 -107 -128 0
4 -52 107 -128 0
5 -78 -116 -128 0
-28 67 -81 128 0
33 67 89 128 0
2 -59 98 128 0
34 -60 -107 128 0
-33 51 -83 -129 0
1 54 84 -129 0
-3 -59 -88 -129 0
25 -77 -88 -129 0
19 -64 -101 -129 0
27 -64 114 -129 0
33 -41 116 -129 0
35 -41 -119 -129 0
22 69 -82 129 0
40 -68 85 129 0
34 68 89 129 0
8 64 -92 129 0
-22 -69 -92 129 0
10 51 93 129 0
-10 61 -103 129 0
-4 -65 -106 129 0
39 49 -111 129 0
-17 49 114 129 0
-40 -74 -119 129 0
-39 75 -81 -130 0
35 -56 85 -130 0
-40 -44 107 -130 0
-7 57 89 130 0
-23 69 97 130 0
-31 72 97 130 0
10 46 100 130 0
22 -67 109 130 0
-6 -65 -114 130 0
-32 -73 -82 -131 0
22 -43 90 -131 0
-28 -72 -99 -131 0
-32 -58 100 -131 0
27 69 -116 -131 0
-19 57 -100 131 0
12 -61 100 131 0
-32 -78 106 131 0
27 -48 107 131 0
-7 79 109 131 0
7 -61 110 131 0
-3 46 -111 131 0
-35 -48 111 131 0
-23 -47 120 131 0
21 60 81 -132 0
-11 53 84 -132 0
18 52 -90 -132 0
-32 72 97 -132 0
32 42 -101 -132 0
-2 -57 -83 132 0
13 70 85 132 0
-7 -53 -92 132 0
-18 -55 95 132 0
26 69 -113 132 0
-19 -78 89 -133 0
11 44 91 -133 0
-32 56 99 -133 0
-19 -48 -103 -133 0
-36 -68 -107 -133 0
-22 62 -110 -133 0
-39 -58 -114 -133 0
-30 -54 -120 -133 0
-28 64 120 -133 0
25 49 -85 133 0
-20 59 -90 133 0
25 53 93 133 0
-15 74 93 133 0
2 -69 99 133 0
-2 -43 100 133 0
30 45 101 133 0
-1 -69 -102 133 0
-12 -47 -116 133 0
-32 -53 -85 -134 0
24 76 94 -134 0
11 -73 105 -134 0
-10 70 -110 -134 0
-25 -47 117 -134 0
2 44 90 134 0
-22 78 94 134 0
-9 80 -107 134 0
-4 -52 113 134 0
3 -70 89 -135 0
30 42 -100 -135 0
16 73 -108 -135 0
31 73 112 -135 0
-39 -45 119 -135 0
-2 52 119 -135 0
-18 66 -87 135 0
-1 44 87 135 0
19 71 -91 135 0
23 -43 -103 135 0
-30 -45 105 135 0
15 -55 -110 135 0
-24 -71 -112 135 0
-7 -71 115 135 0
-26 -73 85 -136 0
-16 -53 -86 -136 0
39 -48 -89 -136 0
31 -70 -104 -136 0
-11 70 107 -136 0
18 64 108 -136 0
20 -55 115 -136 0
39 79 -102 136 0
-26 -43 110 136 0
-19 76 111 136 0
-37 47 -114 136 0
-33 -69 -118 136 0
9 73 -86 -137 0
22 76 -86 -137 0
-7 -71 -89 -137 0
10 -60 89 -137 0
-36 68 94 -137 0
-3 -50 -101 -137 0
-38 42 102 -137 0
7 -61 109 -137 0
-25 -66 -113 -137 0
32 59 -116 -137 0
7 65 -117 -137 0
10 -47 -118 -137 0
14 52 -85 137 0
-32 64 89 137 0
-13 -71 -99 137 0
40 -58 99 137 0
-24 -58 101 137 0
19 62 104 137 0
12 -42 -105 137 0
-20 60 117 137 0
-1 64 120 137 0
-2 -66 -81 -138 0
36 -61 -85 -138 0
-23 -69 87 -138 0
33 -60 -89 -138 0
35 42 -90 -138 0
40 71 -91 -138 0
-5 49 -94 -138 0
-3 43 -98 -138 0
-37 -58 -99 -138 0
-39 -49 -100 -138 0
26 -48 101 -138 0
-23 -49 104 -138 0
-36 58 117 -138 0
-27 57 -118 -138 0
-33 -80 119 -138 0
-11 69 -120 -138 0
33 -42 -92 138 0
24 45 93 138 0
28 76 -96 138 0
-22 -76 106 138 0
25 47 108 138 0
-34 -64 -110 138 0
4 56 116 138 0
37 -65 -118 138 0
16 51 119 138 0
39 50 -120 138 0
-7 -46 89 -139 0
18 -50 91 -139 0
37 70 -92 -139 0
33 54 -101 -139 0
10 -53 -105 -139 0
6 -68 -106 -139 0
-23 72 112 -139 0
-26 -55 -117 -139 0
2 76 -120 -139 0
36 47 100 139 0
-3 -53 -102 139 0
-31 -79 113 139 0
-1 71 -118 139 0
37 -48 89 -140 0
33 73 90 -140 0
-15 -76 90 -140 0
-22 57 -91 -140 0
11 65 -94 -140 0
-14 -67 -100 -140 0
-17 63 -102 -140 0
23 -55 -104 -140 0
5 -79 -105 -140 0
-34 43 -112 -140 0
-3 -71 -112 -140 0
-34 -44 112 -140 0
25 44 -82 140 0
16 -47 85 140 0
19 -42 -112 140 0
32 -57 113 140 0
-27 63 -82 -141 0
-4 -57 -105 -141 0
-4 -45 111 -141 0
-29 44 -92 141 0
-6 59 -100 141 0
-3 -58 102 141 0
12 75 112 141 0
-32 -73 -115 141 0
2 -77 -119 141 0
-40 74 -85 -142 0
26 -69 99 -142 0
13 52 -100 -142 0
31 60 -116 -142 0
4 -60 -120 -142 0
13 54 -82 142 0
-7 69 -92 142 0
-4 -69 -100 142 0
35 -50 -111 142 0
-22 -51 -116 142 0
-1 -41 -82 -143 0
-39 -43 -95 -143 0
33 -53 -97 -143 0
-6 -75 -100 -143 0
-18 74 -103 -143 0
-4 62 116 -143 0
16 -54 119 -143 0
15 -79 86 143 0
17 -45 91 143 0
24 42 -99 143 0
18 76 102 143 0
-30 -44 -118 143 0
-16 -43 81 -144 0
-5 -46 83 -144 0
-25 69 95 -144 0
12 73 111 -144 0
25 -59 -116 -144 0
-26 41 -119 -144 0
1 73 94 144 0
33 -58 113 144 0
15 -67 -119 144 0
-22 67 87 -145 0
1 -53 90 -145 0
-28 75 93 -145 0
-16 54 101 -145 0
22 55 105 -145 0
-14 73 109 -145 0
-32 -79 109 -145 0
-23 -54 -112 -145 0
37 -52 116 -145 0
31 -60 -83 145 0
-20 -65 91 145 0
20 -50 99 145 0
19 66 107 145 0
-13 75 -111 145 0
27 -67 -112 145 0
6 59 -115 145 0
-6 49 -117 145 0
-18 48 118 145 0
-29 -53 -120 145 0
-22 80 85 -146 0
-28 73 94 -146 0
12 41 106 -146 0
2 -72 -111 -146 0
19 -66 -119 -146 0
-13 -71 119 -146 0
28 -74 119 -146 0
1 45 -85 146 0
-17 70 -86 146 0
27 -54 -89 146 0
-5 -60 -89 146 0
26 51 90 146 0
-1 71 101 146 0
13 64 110 146 0
35 -68 -113 146 0
40 -61 -117 146 0
31 68 -84 -147 0
11 43 90 -147 0
22 53 -91 -147 0
-27 51 -98 -147 0
35 -41 -100 -147 0
2 56 -105 -147 0
29 -75 -108 -147 0
-28 -67 -111 -147 0
20 -75 -91 147 0
-5 54 -92 147 0
14 -48 103 147 0
27 44 -106 147 0
8 42 111 147 0
14 57 120 147 0
35 56 -83 -148 0
39 -75 -84 -148 0
-36 59 -85 -148 0
4 42 92 -148 0
-35 74 -95 -148 0
34 -46 -115 -148 0
-23 -59 116 -148 0
6 65 90 148 0
-3 45 91 148 0
8 80 97 148 0
-19 -79 98 148 0
21 -63 -105 148 0
-25 80 86 -149 0
28 41 -89 -149 0
-8 -42 94 -149 0
3 -50 103 -149 0
-3 63 -115 -149 0
17 57 -82 149 0
15 78 87 149 0
-3 44 109 149 0
17 -79 -110 149 0
18 45 113 149 0
-18 77 115 149 0
-25 73 119 149 0
33 70 -86 -150 0
-19 -47 -96 -150 0
39 -76 98 -150 0
6 -48 -113 -150 0
-28 57 114 -150 0
10 -41 -95 150 0
-10 -53 -96 150 0
17 54 -103 150 0
9 79 103 150 0
-39 80 -108 150 0
-19 56 110 150 0
-30 -52 -118 150 0
-26 77 -119 150 0
14 -43 119 150 0
-38 65 -84 -151 0
-14 -41 -87 -151 0
34 -50 -92 -151 0
25 -61 -102 -151 0
34 -47 102 -151 0
20 -55 -103 -151 0
-14 47 108 -151 0
37 69 108 -151 0
16 45 -112 -151 0
3 53 -115 -151 0
-21 67 -84 151 0
-12 70 99 151 0
39 63 100 151 0
-5 61 -105 151 0
-28 72 108 151 0
-21 67 116 151 0
19 59 -83 -152 0
10 44 87 -152 0
21 61 -106 -152 0
-21 -60 106 -152 0
-27 -56 -113 -152 0
-33 -64 -118 -152 0
40 -69 -89 152 0
-4 55 94 152 0
-23 64 105 152 0
-40 63 111 152 0
12 -53 -112 152 0
4 -80 119 152 0
-31 79 -81 -153 0
-16 54 83 -153 0
29 80 85 -153 0
-10 52 -89 -153 0
-39 72 -90 -153 0
37 -71 93 -153 0
-40 -65 -96 -153 0
5 41 -104 -153 0
27 -79 -108 -153 0
40 42 -113 -153 0
9 -74 -81 153 0
6 -46 86 153 0
1 76 -88 153 0
-33 -60 91 153 0
30 -59 -92 153 0
-31 -76 101 153 0
-22 76 -112 153 0
-5 76 115 153 0
-11 75 -117 153 0
20 -75 119 153 0
-10 59 -82 -154 0
16 -48 -83 -154 0
-2 -44 86 -154 0
-13 -75 -89 -154 0
-36 -42 90 -154 0
19 -55 -94 -154 0
-21 -61 -103 -154 0
-37 -49 -111 -154 0
-6 56 115 -154 0
10 -62 81 154 0
-10 -44 83 154 0
8 51 86 154 0
18 47 87 154 0
35 53 -92 154 0
-9 -76 105 154 0
-2 80 -114 154 0
-27 -42 119 154 0
23 -72 -81 -155 0
-12 -61 82 -155 0
24 63 89 -155 0
16 -74 -95 -155 0
-8 61 98 -155 0
14 -65 112 -155 0
-38 -74 116 -155 0
31 -48 -118 -155 0
-32 69 83 155 0
3 -44 -94 155 0
30 -77 94 155 0
-2 53 -100 155 0
-40 69 -104 155 0
7 47 105 155 0
-10 47 -108 155 0
34 47 118 155 0
-35 65 120 155 0
7 -66 89 -156 0
33 48 -93 -156 0
20 52 -97 -156 0
20 -70 100 -156 0
-2 80 -101 -156 0
14 56 104 -156 0
33 65 -108 -156 0
38 62 -109 -156 0
23 -54 110 -156 0
-26 58 -118 -156 0
-1 -71 -118 -156 0
32 68 119 -156 0
-10 -75 81 156 0
31 58 85 156 0
-3 -53 -87 156 0
-13 -46 87 156 0
-38 -57 -88 156 0
18 -61 -90 156 0
-7 -61 -94 156 0
12 -74 -94 156 0
8 -67 -100 156 0
11 -42 -104 156 0
-16 -56 106 156 0
32 -64 113 156 0
24 -72 118 156 0
-24 -75 -81 -157 0
28 -61 -87 -157 0
-19 51 -91 -157 0
12 -78 -101 -157 0
-31 -58 -103 -157 0
5 42 117 -157 0
19 57 -83 157 0
-36 -72 110 157 0
-13 -46 -90 -158 0
-36 57 -109 -158 0
-37 -52 -89 158 0
-39 -58 95 158 0
-5 -58 100 158 0
32 -65 -103 158 0
-2 -44 106 158 0
-39 64 -112 158 0
-32 -66 -87 -159 0
29 -69 -89 -159 0
-20 76 95 -159 0
-4 -46 103 -159 0
20 68 87 159 0
-5 -42 -89 159 0
-14 -77 95 159 0
39 -72 101 159 0
-10 55 -105 159 0
7 65 -109 159 0
6 -71 109 159 0
27 56 -110 159 0
26 -42 -82 -160 0
28 -62 86 -160 0
-34 -74 86 -160 0
-18 44 87 -160 0
-38 -49 89 -160 0
3 51 -92 -160 0
36 58 96 -160 0
-22 65 -102 -160 0
26 64 111 -160 0
-4 54 -114 -160 0
-9 -69 114 -160 0
-38 64 116 -160 0
7 75 -95 160 0
-19 -79 96 160 0
-1 -47 -103 160 0
-27 -61 -104 160 0
35 76 -110 160 0
